(set-info :smt-lib-version 2.6)
(set-logic QF_NIA)
(set-info :source |AProve team, see http://aprove.informatik.rwth-aachen.de/, submitted for SMT-COMP 2014|)
(set-info :category "industrial")
(set-info :status sat)
(declare-fun a__9 () Int)
(declare-fun a__3 () Int)
(declare-fun a__13 () Int)
(declare-fun a__6 () Int)
(declare-fun a__10 () Int)
(assert (and (>= (+ (* a__9 a__3) (* (- 0 1) a__3)) 0) (>= (+ (* a__13 a__3) (* (- 0 1) a__3)) 0) (>= (* a__6 a__3) 0) (>= (* a__10 a__3) 0) (not (and (= (* a__6 a__3) 0) (= (* a__10 a__3) 0))) (>= a__9 0) (>= a__3 0) (>= a__13 0) (>= a__6 0) (>= a__10 0)))
(assert (<= a__10 10))
(assert (<= a__13 10))
(assert (<= a__3 10))
(assert (<= a__6 10))
(assert (<= a__9 10))
(check-sat)
;;(get-assignment)
;;(get-model)
(exit)
